(set-info :source  loris-7.ddns.comp.nus.edu.sg/~project/hip/) 
;Variables declarations
(declare-fun height_6011 () Int)
(declare-fun v_bool_290_2437_primed () Int)
(declare-fun v_bool_230_2438_primed () Int)
(declare-fun Anon_5422 () Int)
(declare-fun m () Int)
(declare-fun height_5421 () Int)
(declare-fun n () Int)
(declare-fun v_bool_226_2439_primed () Int)
(declare-fun tmp_null_primed () Int)
(declare-fun a_primed () Int)
(declare-fun a () Int)
(declare-fun x () Int)
(declare-fun tmp_primed () Int)
(declare-fun size2_5427 () Int)
(declare-fun height2_5428 () Int)
(declare-fun m_5915 () Int)
(declare-fun n_5916 () Int)
(declare-fun right_289_5931 () Int)
(declare-fun q_5426 () Int)
(declare-fun flted_220_5929 () Int)
(declare-fun n1_5930 () Int)
(declare-fun m_5938 () Int)
(declare-fun size1_5424 () Int)
(declare-fun height1_5425 () Int)
(declare-fun n_5939 () Int)
(declare-fun v_node_289_5935 () Int)
(declare-fun size2_6017 () Int)
(declare-fun height2_6018 () Int)
(declare-fun size1_6014 () Int)
(declare-fun height1_6015 () Int)
(declare-fun v_int_293_2050_primed () Int)
(declare-fun v_int_293_2051_primed () Int)
(declare-fun n_5951 () Int)
(declare-fun m_5950 () Int)
(declare-fun p_5423 () Int)
(declare-fun n_6022 () Int)
(declare-fun m_6021 () Int)
(declare-fun q_6016 () Int)
(declare-fun n_6035 () Int)
(declare-fun m_6034 () Int)
(declare-fun p_6013 () Int)
(declare-fun x_primed () Int)
(declare-fun k1_primed () Int)
;Relations declarations
;Axioms assertions
;Antecedent
(assert (= m_5938 (+ (+ size2_6017 1) size1_6014)))
(assert (<= height2_6018 (+ 1 height1_6015)))
(assert (<= height1_6015 (+ 1 height2_6018)))
(assert (exists ((max_33 Int)) (and (= n_5939 (+ 1 max_33)) (or (and (= max_33 height1_6015) (>= height1_6015 height2_6018)) (and (= max_33 height2_6018) (< height1_6015 height2_6018))))))
(assert (= height_6011 n_5939))
(assert (> v_bool_290_2437_primed 0))
(assert (not (> v_bool_230_2438_primed 0)))
(assert (< Anon_5422 a_primed))
(assert (= m (+ (+ size2_5427 1) size1_5424)))
(assert (<= height2_5428 (+ 1 height1_5425)))
(assert (<= height1_5425 (+ 1 height2_5428)))
(assert (exists ((max_33 Int)) (and (= n (+ 1 max_33)) (or (and (= max_33 height1_5425) (>= height1_5425 height2_5428)) (and (= max_33 height2_5428) (< height1_5425 height2_5428))))))
(assert (= height_5421 n))
(assert (not (> v_bool_226_2439_primed 0)))
(assert (> x_primed 0))
(assert (< tmp_null_primed 1))
(assert (= a_primed a))
(assert (= x_primed x))
(assert (= tmp_primed q_5426))
(assert (= m_5915 size2_5427))
(assert (= n_5916 height2_5428))
(assert (<= 0 size2_5427))
(assert (<= 0 height2_5428))
(assert (= flted_220_5929 (+ 1 m_5915)))
(assert (<= n_5916 n1_5930))
(assert (<= n1_5930 (+ 1 n_5916)))
(assert (<= 0 m_5915))
(assert (<= 0 n_5916))
(assert (= right_289_5931 q_5426))
(assert (= m_5938 flted_220_5929))
(assert (= n_5939 n1_5930))
(assert (<= 0 flted_220_5929))
(assert (<= 0 n1_5930))
(assert (<= 0 m_5938))
(assert (<= 0 n_5939))
(assert (= m_5950 size1_5424))
(assert (= n_5951 height1_5425))
(assert (<= 0 size1_5424))
(assert (<= 0 height1_5425))
(assert (<= 0 m_5950))
(assert (<= 0 n_5951))
(assert (= (+ 2 n_5951) n_5939))
(assert (= k1_primed v_node_289_5935))
(assert (= m_6021 size2_6017))
(assert (= n_6022 height2_6018))
(assert (<= 0 size2_6017))
(assert (<= 0 height2_6018))
(assert (= v_int_293_2051_primed n_6022))
(assert (<= 0 m_6021))
(assert (<= 0 n_6022))
(assert (= m_6034 size1_6014))
(assert (= n_6035 height1_6015))
(assert (<= 0 size1_6014))
(assert (<= 0 height1_6015))
(assert (= v_int_293_2050_primed n_6035))
(assert (<= 0 m_6034))
(assert (<= 0 n_6035))
(assert (< v_int_293_2050_primed v_int_293_2051_primed))
(assert (= x_primed 1))
(assert (= k1_primed 2))
(assert (or (and (and (< p_5423 1) (= m_5950 0)) (= n_5951 0)) (and (and (<= 1 n_5951) (<= 1 m_5950)) (> p_5423 0))))
(assert (or (and (and (< q_6016 1) (= m_6021 0)) (= n_6022 0)) (and (and (<= 1 n_6022) (<= 1 m_6021)) (> q_6016 0))))
(assert (or (and (and (< p_6013 1) (= m_6034 0)) (= n_6035 0)) (and (and (<= 1 n_6035) (<= 1 m_6034)) (> p_6013 0))))
(assert (not (= x_primed k1_primed)))
;Negation of Consequence
(assert (not false))
(check-sat)